3 
4  52 
5  03 14 33 41 49 58 
6  08 16 24 31 39 46 54 
7  01 09 16 24 31 39 46 54 
8  01 09 16 24 31 39 46 54 
9  01 08 16 23 31 38 46 53 
10  01 08 16 23 31 38 46 53 
11  01 08 16 23 31 38 46 53 
12  01 08 16 23 31 38 46 53 
13  01 08 16 23 31 38 46 53 
14  01 08 16 23 31 38 46 53 
15  01 08 16 23 31 38 46 53 
16  01 08 16 23 31 38 46 53 
17  01 08 16 23 31 38 46 53 
18  01 08 16 23 31 38 46 53 
19  01 08 16 23 31 38 46 53 
20  01 10 25 40 55 
21  10 25 40 54 
22  09 25 40 54 
23 
